sat
(
  (define-fun C3_VM8 () Int
    0)
  (define-fun C3_VM5 () Int
    0)
  (define-fun C4_VM10 () Int
    0)
  (define-fun C3_VM2 () Int
    0)
  (define-fun VM5Type () Int
    17)
  (define-fun ProcProv6 () Int
    4)
  (define-fun C2_VM3 () Int
    0)
  (define-fun C2_VM6 () Int
    0)
  (define-fun C3_VM1 () Int
    0)
  (define-fun C1_VM5 () Int
    0)
  (define-fun PriceProv6 () Int
    379)
  (define-fun MemProv3 () Int
    3750)
  (define-fun C2_VM7 () Int
    1)
  (define-fun C2_VM9 () Int
    0)
  (define-fun StorageProv2 () Int
    2000)
  (define-fun C4_VM4 () Int
    0)
  (define-fun MemProv7 () Int
    3750)
  (define-fun MemProv5 () Int
    3750)
  (define-fun C5_VM8 () Int
    1)
  (define-fun MemProv10 () Int
    30500)
  (define-fun VM6Type () Int
    15)
  (define-fun C4_VM5 () Int
    0)
  (define-fun MemProv9 () Int
    3750)
  (define-fun C5_VM2 () Int
    0)
  (define-fun VM2Type () Int
    17)
  (define-fun C1_VM8 () Int
    0)
  (define-fun PriceProv1 () Int
    128)
  (define-fun C5_VM5 () Int
    0)
  (define-fun PriceProv9 () Int
    128)
  (define-fun C5_VM3 () Int
    0)
  (define-fun C3_VM9 () Int
    0)
  (define-fun MemProv4 () Int
    3750)
  (define-fun C4_VM8 () Int
    0)
  (define-fun ProcProv8 () Int
    4)
  (define-fun VM7Type () Int
    17)
  (define-fun StorageProv10 () Int
    1000)
  (define-fun MemProv2 () Int
    3750)
  (define-fun StorageProv6 () Int
    1000)
  (define-fun ProcProv7 () Int
    2)
  (define-fun C4_VM7 () Int
    0)
  (define-fun C3_VM6 () Int
    1)
  (define-fun C3_VM7 () Int
    0)
  (define-fun PriceProv5 () Int
    128)
  (define-fun C4_VM2 () Int
    0)
  (define-fun C5_VM6 () Int
    0)
  (define-fun C2_VM1 () Int
    1)
  (define-fun StorageProv5 () Int
    2000)
  (define-fun PriceProv3 () Int
    128)
  (define-fun PriceProv10 () Int
    379)
  (define-fun ProcProv2 () Int
    2)
  (define-fun C2_VM4 () Int
    0)
  (define-fun VM4Type () Int
    17)
  (define-fun C1_VM3 () Int
    1)
  (define-fun C1_VM10 () Int
    0)
  (define-fun ProcProv10 () Int
    4)
  (define-fun StorageProv8 () Int
    1000)
  (define-fun VM1Type () Int
    17)
  (define-fun C5_VM4 () Int
    0)
  (define-fun C1_VM4 () Int
    1)
  (define-fun C4_VM1 () Int
    0)
  (define-fun ProcProv1 () Int
    2)
  (define-fun VM9Type () Int
    17)
  (define-fun StorageProv1 () Int
    2000)
  (define-fun C5_VM9 () Int
    0)
  (define-fun StorageProv4 () Int
    2000)
  (define-fun C3_VM3 () Int
    0)
  (define-fun MemProv1 () Int
    3750)
  (define-fun C5_VM10 () Int
    1)
  (define-fun C3_VM10 () Int
    0)
  (define-fun VM8Type () Int
    15)
  (define-fun C2_VM10 () Int
    0)
  (define-fun C1_VM7 () Int
    0)
  (define-fun MemProv8 () Int
    30500)
  (define-fun PriceProv2 () Int
    128)
  (define-fun PriceProv4 () Int
    128)
  (define-fun C1_VM1 () Int
    0)
  (define-fun ProcProv4 () Int
    2)
  (define-fun C4_VM6 () Int
    0)
  (define-fun ProcProv3 () Int
    2)
  (define-fun C3_VM4 () Int
    0)
  (define-fun C4_VM9 () Int
    0)
  (define-fun PriceProv8 () Int
    379)
  (define-fun VM10Type () Int
    15)
  (define-fun StorageProv9 () Int
    2000)
  (define-fun StorageProv7 () Int
    2000)
  (define-fun PriceProv7 () Int
    128)
  (define-fun C2_VM2 () Int
    0)
  (define-fun C1_VM2 () Int
    1)
  (define-fun C1_VM6 () Int
    0)
  (define-fun MemProv6 () Int
    30500)
  (define-fun C5_VM1 () Int
    0)
  (define-fun ProcProv9 () Int
    2)
  (define-fun C2_VM8 () Int
    0)
  (define-fun C4_VM3 () Int
    0)
  (define-fun StorageProv3 () Int
    2000)
  (define-fun ProcProv5 () Int
    2)
  (define-fun C2_VM5 () Int
    1)
  (define-fun C5_VM7 () Int
    0)
  (define-fun VM3Type () Int
    17)
  (define-fun C1_VM9 () Int
    1)
)
(objectives
 ( 26)
 ((+ 0
   PriceProv1
   PriceProv2
   PriceProv3
   PriceProv4
   PriceProv5
   PriceProv6
   PriceProv7
   PriceProv8
   PriceProv9
   PriceProv10) 2033)
)
(:added-eqs                   162999
 :arith-eq-adapter            34069
 :arith-bound-propagations-lp 709
 :arith-conflicts             68
 :arith-diseq                 129497
 :arith-fixed-eqs             4256
 :arith-lower                 119478
 :arith-make-feasible         27418
 :arith-max-columns           174
 :arith-max-rows              32
 :arith-upper                 164144
 :binary-propagations         499701
 :conflicts                   1795
 :decisions                   48576
 :del-clause                  33084
 :final-checks                39
 :max-memory                  44.00
 :maxsat-cores                10
 :memory                      44.00
 :minimized-lits              7230
 :mk-bool-var                 65514
 :mk-clause                   34493
 :mk-clause-binary            4782
 :num-allocs                  26790442
 :num-checks                  68
 :pb-conflicts                1024
 :pb-predicates               367
 :pb-propagations             4683
 :pb-resolves                 962
 :propagations                665668
 :restarts                    6
 :rlimit-count                5198218
 :time                        0.28
 :total-time                  0.28)
